92	0

0	3	2	3	4
8	6	6	9	11	12	13	14
10	3	6	12	13
4	1	5
1	6	6	9	11	12	13	14
3	8	7	8	10	15	19	20	26	32
9	2	28	37
6	3	16	17	21
6	5	15	19	20	26	32
5	4	16	17	21	27
8	4	15	19	20	32
4	5	15	19	20	26	32
6	4	15	19	20	32
7	4	15	19	20	32
1	7	16	17	18	21	22	27	41
8	5	43	44	46	50	54
1	3	23	24	25
7	6	30	33	36	40	42	45
6	2	28	37
9	3	30	33	45
9	3	44	50	54
7	6	30	33	36	40	42	45
1	6	28	29	31	35	37	39
5	3	30	33	45
3	8	30	33	34	36	38	40	42	45
8	2	28	37
3	6	28	29	31	35	37	39
1	8	30	33	34	36	38	40	42	45
2	8	30	33	34	36	38	40	42	45
5	5	47	49	51	53	55
6	5	43	44	46	50	54
10	5	43	44	46	50	54
2	5	43	44	46	50	54
9	7	52	56	57	58	59	62	74
7	3	44	50	54
4	3	44	50	54
9	4	47	51	52	55
8	4	47	51	52	55
10	4	47	51	52	55
5	7	47	48	49	51	53	55	61
9	5	43	44	46	50	54
7	4	47	51	52	55
10	7	56	57	58	60	62	66	74
1	7	47	48	49	51	53	55	61
9	7	52	56	57	58	59	62	74
8	8	56	57	58	59	60	62	66	74
4	8	56	57	58	59	60	62	66	74
9	4	60	65	66	71
4	7	52	56	57	58	59	62	74
4	7	52	56	57	58	59	62	74
9	8	63	64	67	68	69	70	72	73
4	4	60	65	66	71
7	7	56	57	58	60	62	66	74
7	8	56	57	58	59	60	62	66	74
6	7	56	57	58	60	62	66	74
3	8	63	64	67	68	69	70	72	73
7	7	67	69	73	75	76	77	81
8	5	69	75	76	77	81
6	7	67	69	73	75	76	77	81
2	8	63	64	67	68	69	70	72	73
10	7	63	64	65	68	70	71	72
2	7	63	64	65	68	70	71	72
9	2	78	81
6	4	75	76	77	81
2	7	67	69	73	75	76	77	81
10	2	78	81
7	1	78
7	4	75	76	77	81
7	1	78
6	4	75	76	77	81
8	4	75	76	77	81
10	1	78
10	3	79	80	84
10	4	75	76	77	81
8	3	82	83	88
3	1	78
7	3	79	80	84
2	3	79	80	84
5	2	85	88
1	3	82	83	88
7	2	85	88
5	1	85
6	1	85
8	2	86	87
1	2	86	87
1	1	89
1	1	89
10	1	91
3	2	90	91
4	1	92
4	1	92
0	0
